
Gurobi 8.1.1 (win64) logging started 11/24/19 13:15:58

Changed value of parameter LogFile to logs/miss/ip/miss-07-30-1.log
   Prev: gurobi.log  Default: 
Changed value of parameter LogToConsole to 0
   Prev: 1  Min: 0  Max: 1  Default: 1
Changed value of parameter TimeLimit to 3600.0
   Prev: 1e+100  Min: 0.0  Max: 1e+100  Default: 1e+100
Optimize a model with 3178 rows, 1500 columns and 12103 nonzeros
Variable types: 0 continuous, 1500 integer (1485 binary)
Coefficient statistics:
  Matrix range     [1e+00, 5e+02]
  Objective range  [1e+00, 1e+00]
  Bounds range     [1e+00, 1e+00]
  RHS range        [1e+00, 5e+02]
Presolve removed 3 rows and 3 columns
Presolve time: 0.07s
Presolved: 3175 rows, 1497 columns, 12094 nonzeros
Variable types: 0 continuous, 1497 integer (1482 binary)

Root relaxation: objective 4.294118e+00, 757 iterations, 0.03 seconds

    Nodes    |    Current Node    |     Objective Bounds      |     Work
 Expl Unexpl |  Obj  Depth IntInf | Incumbent    BestBd   Gap | It/Node Time

     0     0    4.29412    0  136          -    4.29412      -     -    0s
H    0     0                      15.0000000    4.29412  71.4%     -    0s
H    0     0                      14.0000000    4.29412  69.3%     -    0s
     0     0    6.00000    0   14   14.00000    6.00000  57.1%     -    0s
H    0     0                      13.0000000    6.00000  53.8%     -    0s
H    0     0                      12.0000000    6.00000  50.0%     -    0s
     0     0    6.00000    0   29   12.00000    6.00000  50.0%     -    0s
H    0     0                      11.0000000    6.00000  45.5%     -    0s
     0     0    6.00000    0   20   11.00000    6.00000  45.5%     -    0s
     0     0    6.00000    0   24   11.00000    6.00000  45.5%     -    0s
H    0     0                      10.0000000    6.00000  40.0%     -    0s
     0     0    6.00000    0   47   10.00000    6.00000  40.0%     -    0s
     0     0    6.00000    0   46   10.00000    6.00000  40.0%     -    0s
     0     0    6.00000    0   35   10.00000    6.00000  40.0%     -    1s
     0     0    6.00000    0   35   10.00000    6.00000  40.0%     -    1s
     0     0    6.00000    0   36   10.00000    6.00000  40.0%     -    1s
     0     0    6.00000    0   43   10.00000    6.00000  40.0%     -    1s
     0     0    6.00000    0   22   10.00000    6.00000  40.0%     -    1s
     0     0    6.00000    0   22   10.00000    6.00000  40.0%     -    1s
     0     0    6.00000    0   15   10.00000    6.00000  40.0%     -    1s
     0     0    6.00000    0   17   10.00000    6.00000  40.0%     -    1s
     0     0    6.00000    0   17   10.00000    6.00000  40.0%     -    1s
     0     0    6.00000    0   10   10.00000    6.00000  40.0%     -    1s
     0     0    6.00000    0   45   10.00000    6.00000  40.0%     -    1s
H    0     0                       9.0000000    6.00000  33.3%     -    1s
     0     0    6.00000    0   12    9.00000    6.00000  33.3%     -    1s
     0     0    6.00000    0   41    9.00000    6.00000  33.3%     -    1s
     0     0    6.00000    0   57    9.00000    6.00000  33.3%     -    1s
     0     0    6.00000    0   31    9.00000    6.00000  33.3%     -    1s
     0     0    6.00000    0   31    9.00000    6.00000  33.3%     -    1s
     0     0    6.00000    0   18    9.00000    6.00000  33.3%     -    1s
     0     0    6.00000    0   14    9.00000    6.00000  33.3%     -    1s
     0     0    6.00000    0   12    9.00000    6.00000  33.3%     -    1s
     0     0    6.00000    0   36    9.00000    6.00000  33.3%     -    1s
     0     0    6.00000    0   36    9.00000    6.00000  33.3%     -    1s
     0     0    6.00000    0    8    9.00000    6.00000  33.3%     -    1s
     0     0    6.00000    0    9    9.00000    6.00000  33.3%     -    1s
     0     0    6.00000    0   17    9.00000    6.00000  33.3%     -    1s
     0     0    6.00000    0   22    9.00000    6.00000  33.3%     -    1s
     0     0    6.00000    0   34    9.00000    6.00000  33.3%     -    2s
     0     0    6.00000    0   33    9.00000    6.00000  33.3%     -    2s
     0     2    6.00000    0   11    9.00000    6.00000  33.3%     -    2s
  2948  1257    8.00000  122   21    9.00000    6.00000  33.3%  22.5    5s
 20972 11836 infeasible   82         9.00000    6.00000  33.3%  10.9   13s
 32315 18643    8.00000  165   25    9.00000    6.00000  33.3%   9.9   15s
 64151 38335 infeasible   95         9.00000    6.00000  33.3%   8.5   20s
 93619 56729    8.00000   79   25    9.00000    6.00000  33.3%   8.3   25s
H93935 19432                       8.0000000    6.00000  25.0%   8.3   25s
 94223 19460    7.00000   76   13    8.00000    6.00000  25.0%   8.4   30s
 118952 26710    6.02268   60   44    8.00000    6.00000  25.0%   8.5   35s
 147473 35351    7.00000   91   30    8.00000    6.00000  25.0%   8.4   40s
 168181 47302    7.00000   85   16    8.00000    6.00000  25.0%   8.4   45s
 192744 63913 infeasible   73         8.00000    6.00000  25.0%   8.4   50s
H192836   794                       7.0000000    6.00000  14.3%   8.4   50s
 192977   790    6.00000   56   14    7.00000    6.00000  14.3%   8.4   56s
 213620  1602 infeasible  105         7.00000    6.00000  14.3%   8.5   60s
 246088  2690 infeasible   78         7.00000    6.00000  14.3%   8.5   65s
 279050  4661    6.00000  104   22    7.00000    6.00000  14.3%   8.7   70s
 313000  5866    6.00000   71   23    7.00000    6.00000  14.3%   8.8   75s
 347259  5985 infeasible   84         7.00000    6.00000  14.3%   8.9   80s
 379744  6722 infeasible  107         7.00000    6.00000  14.3%   9.0   85s
 409170  7211 infeasible   97         7.00000    6.00000  14.3%   9.2   90s
 440401  7451    6.00000   80   32    7.00000    6.00000  14.3%   9.3   95s
 470154  7299 infeasible  104         7.00000    6.00000  14.3%   9.4  100s
 499873  6626 infeasible   93         7.00000    6.00000  14.3%   9.5  105s
 528471  6265 infeasible   86         7.00000    6.00000  14.3%   9.6  110s
 556515  6075    6.00000   77   17    7.00000    6.00000  14.3%   9.8  115s
 585008  4906 infeasible  102         7.00000    6.00000  14.3%   9.9  120s
 612152  4130 infeasible   98         7.00000    6.00000  14.3%   9.9  125s
 639517  3200    6.00000   79   22    7.00000    6.00000  14.3%  10.0  130s
 667023  2600 infeasible   84         7.00000    6.00000  14.3%  10.1  135s
 693011  1718 infeasible   73         7.00000    6.00000  14.3%  10.2  140s
 716812   706 infeasible   71         7.00000    6.00000  14.3%  10.4  145s

Cutting planes:
  Gomory: 5
  Flow cover: 1
  Inf proof: 38

Explored 730131 nodes (7627288 simplex iterations) in 147.98 seconds
Thread count was 4 (of 4 available processors)

Solution count 9: 7 8 9 ... 15

Optimal solution found (tolerance 1.00e-04)
Best objective 7.000000000000e+00, best bound 7.000000000000e+00, gap 0.0000%
